Version identifier: 20.1.0.0 | 2020-11-10 | 9bedb6d68
Tried aggregator 2 times.
MIP Presolve eliminated 1784 rows and 1039 columns.
MIP Presolve modified 3448 coefficients.
Aggregator did 188 substitutions.
Reduced MIP has 1434 rows, 1180 columns, and 4559 nonzeros.
Reduced MIP has 313 binaries, 867 generals, 0 SOSs, and 0 indicators.
Presolve time = 0.02 sec. (7.67 ticks)
Found incumbent of value 51.000000 after 0.03 sec. (12.95 ticks)
Probing fixed 40 vars, tightened 345 bounds.
Probing time = 0.00 sec. (1.59 ticks)
Tried aggregator 2 times.
Detecting symmetries...
MIP Presolve eliminated 600 rows and 46 columns.
MIP Presolve modified 77 coefficients.
Aggregator did 4 substitutions.
Reduced MIP has 830 rows, 1130 columns, and 2707 nonzeros.
Reduced MIP has 472 binaries, 658 generals, 0 SOSs, and 0 indicators.
Presolve time = 0.01 sec. (4.04 ticks)
Probing time = 0.00 sec. (0.24 ticks)
Clique table members: 41.
MIP emphasis: balance optimality and feasibility.
MIP search method: dynamic search.
Parallel mode: deterministic, using up to 24 threads.
Root relaxation solution time = 0.01 sec. (3.06 ticks)

        Nodes                                         Cuts/
   Node  Left     Objective  IInf  Best Integer    Best Bound    ItCnt     Gap

*     0+    0                           51.0000        0.0000           100.00%
      0     0        0.0000    53       51.0000        0.0000      277  100.00%
*     0+    0                           17.0000        0.0000           100.00%
      0     0        0.0000    67       17.0000     Cuts: 115      485  100.00%
      0     0        0.0000    82       17.0000      Cuts: 88      571  100.00%
*     0+    0                           11.0000        0.0000           100.00%
*     0+    0                           10.0000        0.0000           100.00%
      0     0        cutoff             10.0000       10.0000      571    0.00%
Elapsed time = 0.26 sec. (91.17 ticks, tree = 0.01 MB, solutions = 4)

Implied bound cuts applied:  26
Mixed integer rounding cuts applied:  11
Zero-half cuts applied:  55
Lift and project cuts applied:  2
Gomory fractional cuts applied:  20

Root node processing (before b&c):
  Real time             =    0.26 sec. (91.31 ticks)
Parallel b&c, 24 threads:
  Real time             =    0.00 sec. (0.00 ticks)
  Sync time (average)   =    0.00 sec.
  Wait time (average)   =    0.00 sec.
                          ------------
Total (root+branch&cut) =    0.26 sec. (91.31 ticks)

Solution status = Optimal
Solution LB = 10
Solution UB = 10
Runtime = 0.262764 seconds
	Command being timed: "/home/min/git_repos/CS598MEBProject/CNT-ILP/build/cnt -s 2 ./output/k6_n40/simC_c1_k6_n40_u3_s2_del02.input-left.cnp"
	User time (seconds): 2.48
	System time (seconds): 0.09
	Percent of CPU this job got: 837%
	Elapsed (wall clock) time (h:mm:ss or m:ss): 0:00.30
	Average shared text size (kbytes): 0
	Average unshared data size (kbytes): 0
	Average stack size (kbytes): 0
	Average total size (kbytes): 0
	Maximum resident set size (kbytes): 92596
	Average resident set size (kbytes): 0
	Major (requiring I/O) page faults: 0
	Minor (reclaiming a frame) page faults: 19979
	Voluntary context switches: 5063
	Involuntary context switches: 342
	Swaps: 0
	File system inputs: 0
	File system outputs: 16
	Socket messages sent: 0
	Socket messages received: 0
	Signals delivered: 0
	Page size (bytes): 4096
	Exit status: 0
